c colouring generated by benchmark framework
p edge 632 25733
v 1 10
v 2 3
v 3 14
v 4 13
v 5 1
v 6 9
v 7 6
v 8 13
v 9 17
v 10 13
v 11 18
v 12 21
v 13 18
v 14 18
v 15 1
v 16 14
v 17 12
v 18 8
v 19 16
v 20 24
v 21 7
v 22 21
v 23 24
v 24 11
v 25 6
v 26 18
v 27 11
v 28 4
v 29 17
v 30 1
v 31 12
v 32 6
v 33 14
v 34 6
v 35 9
v 36 12
v 37 7
v 38 0
v 39 8
v 40 16
v 41 8
v 42 13
v 43 14
v 44 14
v 45 11
v 46 22
v 47 17
v 48 10
v 49 20
v 50 18
v 51 15
v 52 20
v 53 10
v 54 19
v 55 14
v 56 16
v 57 12
v 58 8
v 59 5
v 60 17
v 61 4
v 62 1
v 63 8
v 64 22
v 65 14
v 66 21
v 67 17
v 68 12
v 69 2
v 70 3
v 71 8
v 72 1
v 73 13
v 74 18
v 75 15
v 76 16
v 77 15
v 78 9
v 79 2
v 80 11
v 81 23
v 82 11
v 83 4
v 84 6
v 85 17
v 86 8
v 87 15
v 88 5
v 89 0
v 90 10
v 91 17
v 92 12
v 93 18
v 94 22
v 95 0
v 96 10
v 97 18
v 98 5
v 99 15
v 100 15
v 101 20
v 102 18
v 103 17
v 104 15
v 105 10
v 106 16
v 107 19
v 108 13
v 109 1
v 110 22
v 111 20
v 112 10
v 113 2
v 114 7
v 115 11
v 116 9
v 117 15
v 118 0
v 119 8
v 120 2
v 121 23
v 122 4
v 123 23
v 124 11
v 125 3
v 126 4
v 127 3
v 128 9
v 129 0
v 130 13
v 131 9
v 132 1
v 133 14
v 134 22
v 135 10
v 136 12
v 137 5
v 138 14
v 139 5
v 140 19
v 141 11
v 142 14
v 143 1
v 144 8
v 145 16
v 146 16
v 147 13
v 148 19
v 149 7
v 150 4
v 151 0
v 152 3
v 153 14
v 154 9
v 155 4
v 156 12
v 157 3
v 158 3
v 159 9
v 160 3
v 161 17
v 162 4
v 163 4
v 164 14
v 165 7
v 166 18
v 167 7
v 168 4
v 169 12
v 170 9
v 171 21
v 172 19
v 173 22
v 174 7
v 175 9
v 176 10
v 177 13
v 178 4
v 179 18
v 180 13
v 181 1
v 182 2
v 183 3
v 184 5
v 185 9
v 186 7
v 187 11
v 188 10
v 189 18
v 190 0
v 191 7
v 192 8
v 193 3
v 194 8
v 195 20
v 196 6
v 197 14
v 198 1
v 199 11
v 200 9
v 201 16
v 202 0
v 203 13
v 204 7
v 205 7
v 206 17
v 207 1
v 208 18
v 209 5
v 210 10
v 211 10
v 212 8
v 213 3
v 214 6
v 215 1
v 216 12
v 217 21
v 218 18
v 219 14
v 220 3
v 221 1
v 222 2
v 223 20
v 224 23
v 225 22
v 226 20
v 227 5
v 228 1
v 229 11
v 230 7
v 231 10
v 232 7
v 233 2
v 234 20
v 235 19
v 236 16
v 237 13
v 238 7
v 239 0
v 240 11
v 241 11
v 242 19
v 243 0
v 244 10
v 245 20
v 246 3
v 247 13
v 248 2
v 249 1
v 250 4
v 251 3
v 252 14
v 253 3
v 254 11
v 255 4
v 256 10
v 257 8
v 258 19
v 259 13
v 260 1
v 261 5
v 262 2
v 263 19
v 264 19
v 265 2
v 266 5
v 267 9
v 268 1
v 269 10
v 270 13
v 271 18
v 272 19
v 273 11
v 274 4
v 275 12
v 276 2
v 277 11
v 278 1
v 279 21
v 280 15
v 281 13
v 282 11
v 283 17
v 284 13
v 285 20
v 286 18
v 287 23
v 288 13
v 289 7
v 290 16
v 291 19
v 292 8
v 293 6
v 294 15
v 295 20
v 296 3
v 297 9
v 298 11
v 299 14
v 300 5
v 301 11
v 302 16
v 303 19
v 304 0
v 305 12
v 306 2
v 307 13
v 308 4
v 309 3
v 310 12
v 311 21
v 312 21
v 313 4
v 314 5
v 315 2
v 316 5
v 317 5
v 318 14
v 319 19
v 320 20
v 321 0
v 322 18
v 323 17
v 324 9
v 325 6
v 326 17
v 327 8
v 328 10
v 329 5
v 330 14
v 331 21
v 332 11
v 333 21
v 334 0
v 335 0
v 336 13
v 337 5
v 338 12
v 339 9
v 340 12
v 341 10
v 342 1
v 343 0
v 344 0
v 345 9
v 346 9
v 347 15
v 348 2
v 349 7
v 350 9
v 351 3
v 352 8
v 353 15
v 354 6
v 355 9
v 356 6
v 357 11
v 358 11
v 359 16
v 360 2
v 361 6
v 362 19
v 363 4
v 364 7
v 365 2
v 366 21
v 367 4
v 368 12
v 369 2
v 370 2
v 371 20
v 372 0
v 373 22
v 374 17
v 375 0
v 376 6
v 377 5
v 378 22
v 379 10
v 380 12
v 381 6
v 382 14
v 383 18
v 384 14
v 385 3
v 386 0
v 387 17
v 388 13
v 389 9
v 390 6
v 391 12
v 392 11
v 393 5
v 394 7
v 395 22
v 396 20
v 397 20
v 398 12
v 399 8
v 400 19
v 401 10
v 402 24
v 403 23
v 404 16
v 405 9
v 406 10
v 407 19
v 408 15
v 409 20
v 410 12
v 411 8
v 412 4
v 413 6
v 414 15
v 415 12
v 416 2
v 417 9
v 418 5
v 419 9
v 420 0
v 421 3
v 422 5
v 423 7
v 424 7
v 425 12
v 426 7
v 427 10
v 428 14
v 429 2
v 430 22
v 431 14
v 432 20
v 433 17
v 434 10
v 435 13
v 436 21
v 437 2
v 438 15
v 439 9
v 440 21
v 441 6
v 442 22
v 443 8
v 444 3
v 445 12
v 446 2
v 447 1
v 448 10
v 449 18
v 450 15
v 451 8
v 452 19
v 453 0
v 454 1
v 455 11
v 456 3
v 457 6
v 458 3
v 459 3
v 460 6
v 461 16
v 462 6
v 463 7
v 464 0
v 465 5
v 466 18
v 467 2
v 468 8
v 469 8
v 470 8
v 471 22
v 472 13
v 473 18
v 474 22
v 475 3
v 476 12
v 477 6
v 478 1
v 479 14
v 480 8
v 481 16
v 482 2
v 483 6
v 484 7
v 485 8
v 486 14
v 487 15
v 488 7
v 489 5
v 490 20
v 491 5
v 492 17
v 493 0
v 494 17
v 495 3
v 496 4
v 497 15
v 498 19
v 499 0
v 500 13
v 501 3
v 502 5
v 503 1
v 504 17
v 505 7
v 506 9
v 507 6
v 508 0
v 509 7
v 510 6
v 511 21
v 512 23
v 513 5
v 514 3
v 515 17
v 516 3
v 517 1
v 518 19
v 519 7
v 520 16
v 521 4
v 522 1
v 523 16
v 524 20
v 525 9
v 526 4
v 527 17
v 528 4
v 529 14
v 530 6
v 531 2
v 532 19
v 533 9
v 534 23
v 535 4
v 536 13
v 537 2
v 538 16
v 539 14
v 540 4
v 541 13
v 542 12
v 543 5
v 544 19
v 545 6
v 546 5
v 547 17
v 548 15
v 549 18
v 550 9
v 551 8
v 552 14
v 553 10
v 554 11
v 555 21
v 556 23
v 557 4
v 558 16
v 559 2
v 560 16
v 561 12
v 562 11
v 563 9
v 564 12
v 565 8
v 566 0
v 567 10
v 568 19
v 569 15
v 570 16
v 571 6
v 572 18
v 573 9
v 574 13
v 575 16
v 576 21
v 577 4
v 578 7
v 579 1
v 580 8
v 581 10
v 582 12
v 583 13
v 584 24
v 585 5
v 586 3
v 587 1
v 588 2
v 589 13
v 590 12
v 591 15
v 592 0
v 593 4
v 594 2
v 595 14
v 596 20
v 597 4
v 598 18
v 599 13
v 600 5
v 601 7
v 602 12
v 603 3
v 604 21
v 605 12
v 606 17
v 607 24
v 608 12
v 609 6
v 610 15
v 611 0
v 612 11
v 613 5
v 614 1
v 615 15
v 616 4
v 617 17
v 618 18
v 619 10
v 620 9
v 621 11
v 622 15
v 623 9
v 624 1
v 625 8
v 626 12
v 627 19
v 628 2
v 629 7
v 630 1
v 631 22
v 632 19
